(set-logic OBJ)

; ∀ x ∈ POS. Respect(x) = true
; ∀ x ∈ NEG. Respect(x) = false
(synth-fun Respect ((x OBJ)) Bool
    (
        (Start Bool (
            ; Or/And/Not
            (Or Start Start)
            (And Start Start)
            (Not Start)

            ; userdefined functions
			; Person
			(Male x)
			(AgeLess x StartAge)
			(AgeGreater x StartAge)
			(AgeEq x StartAge)
			(Orientation x StartOrientation)
			(Glasses x)
			(Hat x)
			(HoldObjectsInFront x)
			(Bag x StartBag)
			(TopStyle x StartTopStyle)
			(BottomStyle x StartBottomStyle)
			(ShortSleeve x)
			(LongSleeve x)
			(LongCoat x)
			(Trousers x)
			(Shorts x)
			(SkirtDress x)
			(Boots x)
        ))

        ; terminals
		;Person
		(StartOrientation String ("Front" "Back" "Side"))
		(StartBag String ("BackPack" "ShoulderBag" "HandBag" "NoBag"))
		(StartTopStyle String ("UpperStride" "UpperLogo" "UpperPlaid" "UpperSplice" "NoTopStyle"))
		(StartBottomStyle String ("BottomStripe" "BottomPattern" "NoBottomStyle"))
		(StartAge Int (12 17 18 19 20 21 22 23 24 25 26 27 28 29 30 31 32 33 34 35 36 37 38 39 40 41 42 44 46 47 49 51 53 59 62 67 68 69))
    )
)

; I/O
; +
(declare-var x3 OBJ)
; -
(declare-var x1 OBJ)
(declare-var x9 OBJ)
(declare-var x10 OBJ)
(declare-var x13 OBJ)
(declare-var x38 OBJ)
(declare-var x47 OBJ)
(declare-var x61 OBJ)
(declare-var x73 OBJ)

; facts
; userdefined args = {}
(constraint (= (Respect {"id": 3, "cls": "Person", "Male": True, "Age": 24, "Orientation": "Side", "Glasses": False, "Hat": False, "HoldObjectsInFront": True, "Bag": "NoBag", "TopStyle": "UpperLogo", "BottomStyle": "NoBottomStyle", "ShortSleeve": False, "LongSleeve": True, "LongCoat": False, "Trousers": True, "Shorts": False, "SkirtDress": False, "Boots": True}) true))

(constraint (= (Respect {"id": 1, "cls": "Person", "Male": True, "Age": 19, "Orientation": "Back", "Glasses": False, "Hat": False, "HoldObjectsInFront": True, "Bag": "NoBag", "TopStyle": "UpperLogo", "BottomStyle": "NoBottomStyle", "ShortSleeve": False, "LongSleeve": True, "LongCoat": False, "Trousers": False, "Shorts": False, "SkirtDress": False, "Boots": False}) false))
(constraint (= (Respect {"id": 9, "cls": "Person", "Male": True, "Age": 23, "Orientation": "Side", "Glasses": False, "Hat": False, "HoldObjectsInFront": False, "Bag": "NoBag", "TopStyle": "NoTopStyle", "BottomStyle": "NoBottomStyle", "ShortSleeve": False, "LongSleeve": False, "LongCoat": False, "Trousers": False, "Shorts": False, "SkirtDress": False, "Boots": False}) false))
(constraint (= (Respect {"id": 10, "cls": "Person", "Male": False, "Age": 25, "Orientation": "Side", "Glasses": False, "Hat": False, "HoldObjectsInFront": False, "Bag": "NoBag", "TopStyle": "NoTopStyle", "BottomStyle": "NoBottomStyle", "ShortSleeve": False, "LongSleeve": False, "LongCoat": False, "Trousers": False, "Shorts": False, "SkirtDress": False, "Boots": False}) false))
(constraint (= (Respect {"id": 13, "cls": "Person", "Male": True, "Age": 42, "Orientation": "Front", "Glasses": False, "Hat": True, "HoldObjectsInFront": True, "Bag": "NoBag", "TopStyle": "NoTopStyle", "BottomStyle": "NoBottomStyle", "ShortSleeve": False, "LongSleeve": True, "LongCoat": False, "Trousers": True, "Shorts": False, "SkirtDress": False, "Boots": True}) false))
(constraint (= (Respect {"id": 38, "cls": "Person", "Male": True, "Age": 29, "Orientation": "Front", "Glasses": False, "Hat": False, "HoldObjectsInFront": True, "Bag": "NoBag", "TopStyle": "UpperLogo", "BottomStyle": "NoBottomStyle", "ShortSleeve": False, "LongSleeve": True, "LongCoat": False, "Trousers": False, "Shorts": False, "SkirtDress": False, "Boots": False}) false))
(constraint (= (Respect {"id": 47, "cls": "Person", "Male": True, "Age": 24, "Orientation": "Front", "Glasses": False, "Hat": False, "HoldObjectsInFront": True, "Bag": "NoBag", "TopStyle": "UpperLogo", "BottomStyle": "NoBottomStyle", "ShortSleeve": False, "LongSleeve": True, "LongCoat": False, "Trousers": True, "Shorts": False, "SkirtDress": False, "Boots": False}) false))
(constraint (= (Respect {"id": 61, "cls": "Person", "Male": True, "Age": 37, "Orientation": "Front", "Glasses": False, "Hat": True, "HoldObjectsInFront": True, "Bag": "NoBag", "TopStyle": "UpperLogo", "BottomStyle": "NoBottomStyle", "ShortSleeve": False, "LongSleeve": True, "LongCoat": False, "Trousers": True, "Shorts": False, "SkirtDress": False, "Boots": False}) false))
(constraint (= (Respect {"id": 73, "cls": "Person", "Male": True, "Age": 38, "Orientation": "Front", "Glasses": False, "Hat": False, "HoldObjectsInFront": False, "Bag": "NoBag", "TopStyle": "UpperLogo", "BottomStyle": "NoBottomStyle", "ShortSleeve": False, "LongSleeve": False, "LongCoat": True, "Trousers": True, "Shorts": False, "SkirtDress": False, "Boots": False}) false))

(check-synth)
